p tw 30 45
1 20
1 21
1 23
2 12
2 15
2 21
3 13
3 16
3 26
4 10
4 13
4 25
5 11
5 15
5 24
6 18
6 22
6 25
7 10
7 19
7 28
8 12
8 16
8 17
9 14
9 23
9 25
10 28
11 13
11 26
12 18
14 20
14 29
15 22
16 17
17 27
18 27
19 22
19 24
20 30
21 30
23 29
24 30
26 28
27 29
